instances/p1/p1_6_5-3.txt
{
	"num_strings": 6,
	"alphabet": "ACGT",
	"strings": [
		"AAAAA",
		"AAAAA",
		"GAACA",
		"AAAAC",
		"CACCA",
		"GACCC"
	],
	"str_length":[5,5,5,5,5,5]
}